# Solution for model GasLib-40
# Objective value = 5.2881766162233212e+01
loadshed[innode_1] 0
loadshed[innode_2] 0
loadshed[innode_3] 0
loadshed[innode_4] 0
loadshed[innode_5] 0
loadshed[innode_6] 0
loadshed[innode_7] 0
loadshed[innode_8] 0
loadshed[source_1] -1.3280326366224093e-01
loadshed[source_2] 3.0112810072011276e-02
loadshed[source_3] 4.3719404802725081e-01
loadshed[sink_1] 3.6999106491016975e-01
loadshed[sink_2] 0
loadshed[sink_3] 0
loadshed[sink_4] 0
loadshed[sink_5] 0
loadshed[sink_6] 0
loadshed[sink_7] 0
loadshed[sink_8] 0
loadshed[sink_9] 0
loadshed[sink_10] 0
loadshed[sink_11] 0
loadshed[sink_12] 1
loadshed[sink_13] 0
loadshed[sink_14] 0
loadshed[sink_15] 0
loadshed[sink_16] 0
loadshed[sink_17] 0
loadshed[sink_18] 0
loadshed[sink_19] 0
loadshed[sink_20] 0
loadshed[sink_21] 1
loadshed[sink_22] 0
loadshed[sink_23] 0
loadshed[sink_24] 8.6354368131555514e-01
loadshed[sink_25] 0
loadshed[sink_26] 0
loadshed[sink_27] 0
loadshed[sink_28] 0
loadshed[sink_29] 0
flow[source_1,sink_3] 1.7908518261993692e+02
flow[innode_1,sink_16] 1.6354166666666970e+01
flow[innode_6,sink_13] 2.5505017384321565e+01
flow[sink_13,sink_14] 9.1508507176548974e+00
flow[sink_14,sink_10] -7.2033159490117713e+00
flow[sink_25,sink_26] 1.1243244261998930e+02
flow[sink_26,sink_9] 0
flow[sink_9,sink_18] -1.6354166666669244e+01
flow[sink_26,sink_4] 9.6078275953322631e+01
flow[sink_4,sink_20] -1.4487134547723102e+01
flow[sink_18,sink_6] -3.2708333333335915e+01
flow[sink_25,innode_8] -1.4637684928660056e+02
flow[sink_6,sink_7] -7.5719937792617486e+01
flow[sink_6,sink_22] 2.6657437792614935e+01
flow[sink_7,sink_24] 2.2316293784851888e+00
flow[sink_22,sink_1] 1.0303271125948267e+01
flow[sink_24,sink_21] 0
flow[sink_21,sink_12] 0
flow[sink_7,sink_5] -9.4305733837769353e+01
flow[sink_5,sink_17] -1.1065990050443602e+02
flow[sink_17,sink_4] -9.4211243834379061e+01
flow[sink_17,sink_8] -3.2802823336723634e+01
flow[sink_3,sink_23] 16.3541666666697
flow[sink_8,sink_20] -4.9156990003390305e+01
flow[sink_25,sink_20] 7.9998291217780093e+01
flow[sink_25,sink_15] -8.7913068602156542e+01
flow[sink_15,sink_29] -5.8658166518802354e+01
flow[sink_29,sink_28] 1.6354166666667879e+01
flow[sink_29,sink_2] 6.1963235416687553e+01
flow[sink_2,sink_15] 4.5609068750020889e+01
flow[sink_29,innode_7] -1.5332973526882404e+02
flow[innode_4,sink_19] 7.2619982615678865e+01
flow[sink_19,innode_3] 5.6265815949012222e+01
flow[innode_4,innode_5] 1.6354166666679703e+01
flow[sink_27,innode_5] -1.6354166666679703e+01
flow[sink_27,sink_19] 0
flow[sink_10,sink_11] 3.2708333333333641e+01
flow[sink_10,innode_2] 0
flow[sink_10,innode_3] -5.6265815949012222e+01
flow[innode_6,sink_25] -2.5505017384321565e+01
flow[sink_11,innode_1] 1.6354166666666970e+01
flow[sink_19,innode_2] 0
flow[source_3,innode_4] 8.8974149282358567e+01
flow[source_2,innode_7] 1.5332973526882404e+02
flow[sink_3,innode_8] 1.4637684928660056e+02
pressure[innode_1] 74.7993382596061
pressure[innode_2] 7.4951039567209648e+01
pressure[innode_3] 7.7946635189461915e+01
pressure[innode_4] 81.01325
pressure[innode_5] 8.1002000741808772e+01
pressure[innode_6] 7.4767313962723435e+01
pressure[innode_7] 81.01325
pressure[innode_8] 8.0414636647521007e+01
pressure[source_1] 81.01325
pressure[source_2] 81.01325
pressure[source_3] 81.01325
pressure[sink_1] 1.0132500000000002e+00
pressure[sink_2] 7.5342681567249457e+01
pressure[sink_3] 8.0414636647521007e+01
pressure[sink_4] 5.4633122390525195e+01
pressure[sink_5] 4.2789316588303556e+01
pressure[sink_6] 2.52884510022503
pressure[sink_7] 3.5682993571032191e+00
pressure[sink_8] 52.2704150472831
pressure[sink_9] 1.0636927209187923e+00
pressure[sink_10] 7.4951039567209648e+01
pressure[sink_11] 74.7993382596061
pressure[sink_12] 1.01325
pressure[sink_13] 7.4626709064168026e+01
pressure[sink_14] 7.4610332837328670e+01
pressure[sink_15] 7.5193778009857482e+01
pressure[sink_16] 7.3777688424788423e+01
pressure[sink_17] 5.1032679303149081e+01
pressure[sink_18] 1.6554352147185467e+00
pressure[sink_19] 7.8071229467468527e+01
pressure[sink_20] 55.6959659424454
pressure[sink_21] 1.01325
pressure[sink_22] 1.6834340645564898e+00
pressure[sink_23] 8.0249918635861221e+01
pressure[sink_24] 1.01325
pressure[sink_25] 7.4767313962723435e+01
pressure[sink_26] 6.6848763056909490e+01
pressure[sink_27] 8.0866291377726043e+01
pressure[sink_28] 7.6616997976489586e+01
pressure[sink_29] 7.6912280250106761e+01
interdiction[source_1,sink_3] 0
interdiction[innode_1,sink_16] 0
interdiction[innode_6,sink_13] 0
interdiction[sink_13,sink_14] 0
interdiction[sink_14,sink_10] 0
interdiction[sink_25,sink_26] 0
interdiction[sink_26,sink_9] 1
interdiction[sink_9,sink_18] 0
interdiction[sink_26,sink_4] 0
interdiction[sink_4,sink_20] 0
interdiction[sink_18,sink_6] 0
interdiction[sink_25,innode_8] 0
interdiction[sink_6,sink_7] 0
interdiction[sink_6,sink_22] 0
interdiction[sink_7,sink_24] 0
interdiction[sink_22,sink_1] 0
interdiction[sink_24,sink_21] 0
interdiction[sink_21,sink_12] 0
interdiction[sink_7,sink_5] 0
interdiction[sink_5,sink_17] 0
interdiction[sink_17,sink_4] 0
interdiction[sink_17,sink_8] 0
interdiction[sink_3,sink_23] 0
interdiction[sink_8,sink_20] 0
interdiction[sink_25,sink_20] 0
interdiction[sink_25,sink_15] 0
interdiction[sink_15,sink_29] 0
interdiction[sink_29,sink_28] 0
interdiction[sink_29,sink_2] 0
interdiction[sink_2,sink_15] 0
interdiction[sink_29,innode_7] 0
interdiction[innode_4,sink_19] 0
interdiction[sink_19,innode_3] 0
interdiction[innode_4,innode_5] 0
interdiction[sink_27,innode_5] 0
interdiction[sink_27,sink_19] 1
interdiction[sink_10,sink_11] 0
interdiction[sink_10,innode_2] 0
interdiction[sink_10,innode_3] 0
interdiction[innode_6,sink_25] 0
interdiction[sink_11,innode_1] 0
interdiction[sink_19,innode_2] 1
interdiction[source_3,innode_4] 0
interdiction[source_2,innode_7] 0
interdiction[sink_3,innode_8] 0
WCcheckFlow[source_1,sink_3] 39
WCcheckFlow[innode_1,sink_16] 1
WCcheckFlow[innode_6,sink_13] 13
WCcheckFlow[sink_13,sink_14] 12
WCcheckFlow[sink_14,sink_10] 11
WCcheckFlow[sink_25,sink_26] 15
WCcheckFlow[sink_26,sink_9] 0
WCcheckFlow[sink_9,sink_18] -1
WCcheckFlow[sink_26,sink_4] 14
WCcheckFlow[sink_4,sink_20] 1
WCcheckFlow[sink_18,sink_6] -2
WCcheckFlow[sink_25,innode_8] -36
WCcheckFlow[sink_6,sink_7] -5
WCcheckFlow[sink_6,sink_22] 2
WCcheckFlow[sink_7,sink_24] 3
WCcheckFlow[sink_22,sink_1] 1
WCcheckFlow[sink_24,sink_21] 2
WCcheckFlow[sink_21,sink_12] 1
WCcheckFlow[sink_7,sink_5] -9
WCcheckFlow[sink_5,sink_17] -10
WCcheckFlow[sink_17,sink_4] -12
WCcheckFlow[sink_17,sink_8] 1
WCcheckFlow[sink_3,sink_23] 1
WCcheckFlow[sink_8,sink_20] 0
WCcheckFlow[sink_25,sink_20] 0
WCcheckFlow[sink_25,sink_15] 6
WCcheckFlow[sink_15,sink_29] 5
WCcheckFlow[sink_29,sink_28] 1
WCcheckFlow[sink_29,sink_2] 1
WCcheckFlow[sink_2,sink_15] 0
WCcheckFlow[sink_29,innode_7] 2
WCcheckFlow[innode_4,sink_19] -4
WCcheckFlow[sink_19,innode_3] -5
WCcheckFlow[innode_4,innode_5] 2
WCcheckFlow[sink_27,innode_5] -1
WCcheckFlow[sink_27,sink_19] 0
WCcheckFlow[sink_10,sink_11] 3
WCcheckFlow[sink_10,innode_2] 1
WCcheckFlow[sink_10,innode_3] 6
WCcheckFlow[innode_6,sink_25] -14
WCcheckFlow[sink_11,innode_1] 2
WCcheckFlow[sink_19,innode_2] 0
WCcheckFlow[source_3,innode_4] -1
WCcheckFlow[source_2,innode_7] -1
WCcheckFlow[sink_3,innode_8] 37
